
Gurobi 8.1.0 (mac64) logging started Sun Mar 10 14:46:35 2019

Academic license - for non-commercial use only

Gurobi Optimizer version 8.1.0 build v8.1.0rc1 (mac64)
Copyright (c) 2018, Gurobi Optimization, LLC


ERROR 10003: Unable to open file 'lp_output.lp' for input


Gurobi 8.1.0 (mac64) logging started Sun Mar 10 14:52:25 2019

Academic license - for non-commercial use only

Gurobi Optimizer version 8.1.0 build v8.1.0rc1 (mac64)
Copyright (c) 2018, Gurobi Optimization, LLC

Read LP format model from file lp_output.lp
Reading time = 0.00 seconds
obj: 34 rows, 24 columns, 72 nonzeros
Optimize a model with 34 rows, 24 columns and 72 nonzeros
Variable types: 0 continuous, 24 integer (0 binary)
Coefficient statistics:
  Matrix range     [1e+00, 3e+00]
  Objective range  [0e+00, 0e+00]
  Bounds range     [1e+00, 1e+00]
  RHS range        [1e+00, 1e+01]
Presolve time: 0.00s

Explored 0 nodes (0 simplex iterations) in 0.00 seconds
Thread count was 1 (of 4 available processors)

Solution count 0

Model is infeasible
Best objective -, best bound -, gap -

Unable to retrieve attribute 'X'


Gurobi 8.1.0 (mac64) logging started Sun Mar 10 15:00:15 2019

Academic license - for non-commercial use only

Gurobi Optimizer version 8.1.0 build v8.1.0rc1 (mac64)
Copyright (c) 2018, Gurobi Optimization, LLC

Read LP format model from file lp_output.lp
Reading time = 0.00 seconds
obj: 14 rows, 24 columns, 52 nonzeros
Optimize a model with 14 rows, 24 columns and 52 nonzeros
Variable types: 0 continuous, 24 integer (0 binary)
Coefficient statistics:
  Matrix range     [1e+00, 9e+00]
  Objective range  [0e+00, 0e+00]
  Bounds range     [1e+00, 1e+00]
  RHS range        [1e+00, 1e+01]
Presolve removed 8 rows and 13 columns
Presolve time: 0.00s

Explored 0 nodes (0 simplex iterations) in 0.00 seconds
Thread count was 1 (of 4 available processors)

Solution count 0

Model is infeasible
Best objective -, best bound -, gap -

Unable to retrieve attribute 'X'


Gurobi 8.1.0 (mac64) logging started Sun Mar 10 15:01:39 2019

Academic license - for non-commercial use only

Gurobi Optimizer version 8.1.0 build v8.1.0rc1 (mac64)
Copyright (c) 2018, Gurobi Optimization, LLC

Read LP format model from file lp_output.lp
Reading time = 0.00 seconds
obj: 14 rows, 24 columns, 52 nonzeros
Optimize a model with 14 rows, 24 columns and 52 nonzeros
Variable types: 0 continuous, 24 integer (0 binary)
Coefficient statistics:
  Matrix range     [1e+00, 9e+00]
  Objective range  [0e+00, 0e+00]
  Bounds range     [1e+00, 1e+00]
  RHS range        [1e+00, 1e+01]
Presolve removed 8 rows and 13 columns
Presolve time: 0.00s

Explored 0 nodes (0 simplex iterations) in 0.00 seconds
Thread count was 1 (of 4 available processors)

Solution count 0

Model is infeasible
Best objective -, best bound -, gap -

Unable to retrieve attribute 'X'


Gurobi 8.1.0 (mac64) logging started Sun Mar 10 15:04:44 2019

Academic license - for non-commercial use only

Gurobi Optimizer version 8.1.0 build v8.1.0rc1 (mac64)
Copyright (c) 2018, Gurobi Optimization, LLC

Read LP format model from file lp_output.lp
Reading time = 0.00 seconds
obj: 14 rows, 24 columns, 52 nonzeros
Optimize a model with 14 rows, 24 columns and 52 nonzeros
Variable types: 0 continuous, 24 integer (0 binary)
Coefficient statistics:
  Matrix range     [1e+00, 9e+00]
  Objective range  [0e+00, 0e+00]
  Bounds range     [1e+00, 1e+00]
  RHS range        [1e+00, 1e+01]
Presolve removed 8 rows and 13 columns
Presolve time: 0.00s

Explored 0 nodes (0 simplex iterations) in 0.00 seconds
Thread count was 1 (of 4 available processors)

Solution count 0

Model is infeasible
Best objective -, best bound -, gap -

Unable to retrieve attribute 'X'


Gurobi 8.1.0 (mac64) logging started Sun Mar 10 15:06:06 2019

Academic license - for non-commercial use only

Gurobi Optimizer version 8.1.0 build v8.1.0rc1 (mac64)
Copyright (c) 2018, Gurobi Optimization, LLC

Read LP format model from file lp_output.lp
Reading time = 0.00 seconds
obj: 14 rows, 24 columns, 52 nonzeros
Optimize a model with 14 rows, 24 columns and 52 nonzeros
Variable types: 0 continuous, 24 integer (0 binary)
Coefficient statistics:
  Matrix range     [1e+00, 2e+00]
  Objective range  [0e+00, 0e+00]
  Bounds range     [1e+00, 1e+00]
  RHS range        [1e+00, 1e+01]
Found heuristic solution: objective 0.0000000

Explored 0 nodes (0 simplex iterations) in 0.00 seconds
Thread count was 1 (of 4 available processors)

Solution count 1: 0 

Optimal solution found (tolerance 1.00e-04)
Best objective 0.000000000000e+00, best bound 0.000000000000e+00, gap 0.0000%

Wrote result file 'solution.sol'


Gurobi 8.1.0 (mac64) logging started Sun Mar 10 15:06:32 2019

Academic license - for non-commercial use only

Gurobi Optimizer version 8.1.0 build v8.1.0rc1 (mac64)
Copyright (c) 2018, Gurobi Optimization, LLC

Read LP format model from file lp_output.lp
Reading time = 0.00 seconds
obj: 14 rows, 24 columns, 52 nonzeros
Optimize a model with 14 rows, 24 columns and 52 nonzeros
Variable types: 0 continuous, 24 integer (0 binary)
Coefficient statistics:
  Matrix range     [1e+00, 6e+00]
  Objective range  [0e+00, 0e+00]
  Bounds range     [1e+00, 1e+00]
  RHS range        [1e+00, 1e+01]
Found heuristic solution: objective 0.0000000

Explored 0 nodes (0 simplex iterations) in 0.00 seconds
Thread count was 1 (of 4 available processors)

Solution count 1: 0 

Optimal solution found (tolerance 1.00e-04)
Best objective 0.000000000000e+00, best bound 0.000000000000e+00, gap 0.0000%

Wrote result file 'solution.sol'


Gurobi 8.1.0 (mac64) logging started Sun Mar 10 15:17:03 2019

Academic license - for non-commercial use only

Gurobi Optimizer version 8.1.0 build v8.1.0rc1 (mac64)
Copyright (c) 2018, Gurobi Optimization, LLC

Read LP format model from file lp_output.lp
Reading time = 0.00 seconds
obj: 14 rows, 24 columns, 52 nonzeros
Optimize a model with 14 rows, 24 columns and 52 nonzeros
Variable types: 0 continuous, 24 integer (0 binary)
Coefficient statistics:
  Matrix range     [1e+00, 9e+00]
  Objective range  [0e+00, 0e+00]
  Bounds range     [1e+00, 1e+00]
  RHS range        [1e+00, 1e+01]
Found heuristic solution: objective 0.0000000

Explored 0 nodes (0 simplex iterations) in 0.00 seconds
Thread count was 1 (of 4 available processors)

Solution count 1: 0 

Optimal solution found (tolerance 1.00e-04)
Best objective 0.000000000000e+00, best bound 0.000000000000e+00, gap 0.0000%

Wrote result file 'solution.sol'


Gurobi 8.1.0 (mac64) logging started Sun Mar 10 15:17:49 2019

Academic license - for non-commercial use only

Gurobi Optimizer version 8.1.0 build v8.1.0rc1 (mac64)
Copyright (c) 2018, Gurobi Optimization, LLC

Read LP format model from file lp_output.lp
Reading time = 0.00 seconds
obj: 14 rows, 24 columns, 52 nonzeros
Optimize a model with 14 rows, 24 columns and 52 nonzeros
Variable types: 0 continuous, 24 integer (0 binary)
Coefficient statistics:
  Matrix range     [1e+00, 9e+00]
  Objective range  [0e+00, 0e+00]
  Bounds range     [1e+00, 1e+00]
  RHS range        [1e+00, 1e+01]
Found heuristic solution: objective 0.0000000

Explored 0 nodes (0 simplex iterations) in 0.00 seconds
Thread count was 1 (of 4 available processors)

Solution count 1: 0 

Optimal solution found (tolerance 1.00e-04)
Best objective 0.000000000000e+00, best bound 0.000000000000e+00, gap 0.0000%

Wrote result file 'solution.sol'


Gurobi 8.1.0 (mac64) logging started Sun Mar 10 15:18:39 2019

Academic license - for non-commercial use only

Gurobi Optimizer version 8.1.0 build v8.1.0rc1 (mac64)
Copyright (c) 2018, Gurobi Optimization, LLC

Read LP format model from file lp_output.lp
Reading time = 0.00 seconds
obj: 14 rows, 24 columns, 52 nonzeros
Optimize a model with 14 rows, 24 columns and 52 nonzeros
Variable types: 0 continuous, 24 integer (0 binary)
Coefficient statistics:
  Matrix range     [1e+00, 9e+00]
  Objective range  [0e+00, 0e+00]
  Bounds range     [1e+00, 1e+00]
  RHS range        [1e+00, 1e+01]
Found heuristic solution: objective 0.0000000

Explored 0 nodes (0 simplex iterations) in 0.00 seconds
Thread count was 1 (of 4 available processors)

Solution count 1: 0 

Optimal solution found (tolerance 1.00e-04)
Best objective 0.000000000000e+00, best bound 0.000000000000e+00, gap 0.0000%

Wrote result file 'solution.sol'


Gurobi 8.1.0 (mac64) logging started Sun Mar 10 15:19:08 2019

Academic license - for non-commercial use only

Gurobi Optimizer version 8.1.0 build v8.1.0rc1 (mac64)
Copyright (c) 2018, Gurobi Optimization, LLC

Read LP format model from file lp_output.lp
Reading time = 0.00 seconds
obj: 14 rows, 24 columns, 52 nonzeros
Optimize a model with 14 rows, 24 columns and 52 nonzeros
Variable types: 0 continuous, 24 integer (0 binary)
Coefficient statistics:
  Matrix range     [1e+00, 9e+00]
  Objective range  [0e+00, 0e+00]
  Bounds range     [1e+00, 1e+00]
  RHS range        [1e+00, 1e+01]
Presolve removed 8 rows and 12 columns
Presolve time: 0.00s

Explored 0 nodes (0 simplex iterations) in 0.00 seconds
Thread count was 1 (of 4 available processors)

Solution count 0

Model is infeasible
Best objective -, best bound -, gap -

Unable to retrieve attribute 'X'


Gurobi 8.1.0 (mac64) logging started Sun Mar 10 15:20:04 2019

Academic license - for non-commercial use only

Gurobi Optimizer version 8.1.0 build v8.1.0rc1 (mac64)
Copyright (c) 2018, Gurobi Optimization, LLC

Read LP format model from file lp_output.lp
Reading time = 0.00 seconds
obj: 14 rows, 24 columns, 52 nonzeros
Optimize a model with 14 rows, 24 columns and 52 nonzeros
Variable types: 0 continuous, 24 integer (0 binary)
Coefficient statistics:
  Matrix range     [1e+00, 9e+00]
  Objective range  [0e+00, 0e+00]
  Bounds range     [1e+00, 1e+00]
  RHS range        [1e+00, 1e+01]
Found heuristic solution: objective 0.0000000

Explored 0 nodes (0 simplex iterations) in 0.00 seconds
Thread count was 1 (of 4 available processors)

Solution count 1: 0 

Optimal solution found (tolerance 1.00e-04)
Best objective 0.000000000000e+00, best bound 0.000000000000e+00, gap 0.0000%

Wrote result file 'solution.sol'

